% seed = 0

mint = 33;
% maxt = 138;

nActs = 62;
dur = [0,2,1,1,2,1,3,3,2,1,2,4,1,1,2,3,2,3,2,2,5,4,2,3,4,2,2,2,1,1,2,2,3,1,1,3,1,1,1,2,1,2,1,4,1,3,1,4,4,4,2,2,1,5,4,1,2,2,5,3,5,0];

nSkills = 12;
sreq = [| 0,0,0,0,0,0,0,0,0,0,0,0,
	| 0,0,2,0,0,1,0,1,0,1,0,0,
	| 0,0,0,0,1,0,0,0,1,0,1,0,
	| 0,0,0,0,0,1,0,0,0,0,0,0,
	| 0,0,1,0,0,0,0,0,1,0,1,0,
	| 0,0,0,0,0,0,0,0,0,0,1,0,
	| 0,0,1,0,0,1,0,0,0,0,3,0,
	| 0,0,0,0,0,1,0,1,0,0,0,0,
	| 0,0,0,0,0,0,0,0,0,1,0,0,
	| 0,0,0,1,0,0,0,0,0,0,0,0,
	| 0,0,0,0,0,0,0,0,2,0,0,0,
	| 0,0,0,0,0,1,0,0,2,1,0,0,
	| 0,1,0,1,0,0,0,2,0,0,1,0,
	| 0,0,0,0,0,1,0,0,0,0,1,0,
	| 0,0,0,0,0,1,0,0,0,0,1,1,
	| 0,0,0,0,0,0,0,0,0,0,1,0,
	| 0,0,1,0,0,1,0,0,1,1,1,0,
	| 0,0,1,0,0,0,1,0,2,1,0,0,
	| 0,0,1,0,0,0,0,0,0,0,0,0,
	| 0,0,1,0,0,0,0,0,0,0,0,0,
	| 0,0,0,0,0,0,0,0,0,0,0,1,
	| 0,0,0,0,0,0,0,1,0,1,0,0,
	| 0,1,1,0,0,0,0,0,0,2,1,0,
	| 1,0,1,0,0,1,0,0,0,0,0,0,
	| 0,0,0,0,0,0,0,0,1,0,0,0,
	| 0,1,1,0,0,2,0,0,0,0,1,0,
	| 0,0,0,0,0,1,0,0,1,0,0,0,
	| 1,0,0,0,1,0,0,0,0,0,0,0,
	| 0,0,0,0,0,0,0,0,1,0,0,0,
	| 0,0,0,0,0,0,0,1,1,0,0,0,
	| 0,0,1,0,0,0,0,1,0,0,1,1,
	| 0,0,2,0,0,1,0,1,0,0,0,0,
	| 0,0,0,1,0,0,0,1,1,0,1,1,
	| 0,0,1,0,0,0,0,0,1,2,0,1,
	| 0,0,0,0,0,0,0,0,1,1,0,0,
	| 0,0,1,0,1,1,0,0,0,0,2,0,
	| 0,0,1,0,1,0,0,0,1,2,0,0,
	| 0,0,1,0,0,0,0,0,1,0,0,0,
	| 0,0,0,0,0,0,0,1,0,1,0,0,
	| 0,0,0,0,0,0,0,0,0,0,1,0,
	| 0,0,0,0,1,0,0,0,1,0,0,0,
	| 0,0,0,0,0,0,0,0,1,0,1,0,
	| 1,0,0,0,1,0,0,1,1,0,0,0,
	| 0,0,1,0,0,2,0,0,0,1,1,0,
	| 0,0,0,1,0,0,0,0,1,0,1,1,
	| 0,0,1,0,0,0,0,1,1,1,1,0,
	| 0,0,1,0,0,0,0,1,0,1,0,1,
	| 0,0,1,0,0,1,0,1,0,0,2,0,
	| 0,0,0,0,0,0,0,1,1,1,0,0,
	| 0,0,1,0,0,0,0,0,0,0,0,0,
	| 0,1,0,0,0,0,1,2,0,0,0,1,
	| 0,0,1,1,0,1,1,0,0,0,0,0,
	| 0,0,0,0,1,0,0,0,0,2,0,0,
	| 0,0,2,0,0,0,0,0,1,0,0,0,
	| 0,0,0,0,0,1,1,0,0,0,1,1,
	| 0,0,0,0,0,1,0,0,0,1,2,0,
	| 0,0,1,0,0,0,0,1,0,0,1,0,
	| 0,1,0,0,1,0,0,0,0,1,0,0,
	| 0,0,0,0,0,1,0,0,0,0,1,0,
	| 1,0,0,0,1,0,0,0,0,1,2,0,
	| 0,0,0,0,0,0,0,0,0,1,0,0,
	| 0,0,0,0,0,0,0,0,0,0,0,0, |];

% SumOfsreq = 182;

nResources = 17;
mastery = [| false,false,false,false,true,true,true,true,true,false,false,false,
	| false,false,true,false,false,false,false,false,false,false,false,false,
	| false,false,false,false,false,false,false,false,true,true,true,true,
	| false,false,false,false,false,false,false,false,false,false,false,true,
	| false,false,true,false,false,false,false,false,false,false,false,false,
	| false,false,false,false,false,false,false,false,false,false,true,true,
	| false,false,false,true,true,true,false,false,false,true,true,true,
	| false,false,false,false,false,false,false,true,true,false,false,false,
	| false,false,false,false,false,false,false,true,true,false,false,false,
	| false,false,false,true,true,true,false,false,false,false,false,false,
	| false,false,false,false,false,false,false,false,false,true,true,true,
	| false,false,false,false,false,false,false,false,false,true,true,true,
	| false,false,false,false,false,false,false,false,false,true,true,true,
	| false,false,false,false,false,true,false,false,false,false,false,false,
	| false,false,false,false,false,false,false,true,true,false,false,false,
	| true,true,true,false,false,false,false,false,false,false,false,false,
	| false,false,false,false,false,false,false,false,false,false,false,true, |];

nPrecs = 131;
pred = [1,1,1,2,2,2,3,3,3,4,4,4,5,5,5,6,6,6,7,7,7,8,8,8,9,9,9,10,10,10,11,11,11,12,13,13,13,14,14,14,15,15,15,16,16,16,17,17,17,18,18,18,19,19,19,20,21,21,22,22,22,23,23,23,24,24,24,25,25,25,26,26,27,27,27,28,28,28,29,30,30,30,31,31,32,33,34,35,35,36,36,36,37,38,38,38,39,40,40,41,41,42,42,42,43,43,44,44,44,45,46,46,47,48,48,49,50,50,51,51,52,53,54,55,55,56,57,58,59,60,61];
succ = [2,3,4,10,11,5,42,35,43,9,36,7,53,6,23,17,26,13,32,14,8,12,21,22,17,19,22,20,39,15,51,39,16,49,18,28,39,25,21,55,34,27,38,41,30,54,18,35,21,33,20,32,25,28,24,49,29,40,43,44,31,26,37,30,48,29,40,27,30,31,58,32,35,44,43,33,50,29,31,33,34,57,34,45,49,61,52,41,37,57,37,38,52,53,45,55,40,41,54,50,60,55,47,48,50,47,45,46,56,54,47,48,51,51,59,60,52,56,57,53,59,60,61,59,56,58,58,61,62,62,62];

nUnrels = 1012;
unpred = [2,2,2,2,2,2,2,2,2,2,2,2,2,3,3,3,3,3,3,3,3,3,3,3,3,3,3,3,3,3,3,3,3,3,3,3,3,3,3,3,3,3,3,3,3,3,3,3,3,3,3,3,3,4,4,4,4,4,4,4,4,4,4,4,5,5,5,5,5,5,5,5,5,5,5,5,5,5,5,5,5,5,5,5,5,5,5,5,6,6,6,6,6,6,6,6,6,6,6,6,6,6,6,6,6,6,6,6,6,6,6,6,6,6,6,6,7,7,7,7,7,7,7,7,7,7,7,7,7,7,7,7,7,7,8,8,8,8,8,8,8,8,8,8,8,8,8,8,8,8,8,8,8,8,8,8,8,8,8,8,8,9,9,9,9,9,9,9,9,9,9,9,9,9,9,10,10,10,10,10,10,10,10,10,10,10,10,10,10,10,10,10,10,10,10,10,10,11,11,11,11,11,11,11,11,11,11,11,11,11,11,11,11,11,11,11,11,11,11,11,11,11,11,11,11,11,11,11,11,12,12,12,12,12,12,12,12,12,12,12,12,12,12,12,12,12,12,12,12,12,12,12,12,12,12,12,12,12,12,12,12,12,12,12,12,12,12,12,12,12,12,12,12,12,12,12,13,13,13,13,13,13,13,13,13,13,13,13,13,13,13,13,13,13,13,13,13,13,13,13,13,13,13,14,14,14,14,14,14,14,14,14,14,14,14,14,14,14,14,14,15,15,15,15,15,15,15,15,15,15,15,15,15,15,15,15,15,15,15,15,15,15,16,16,16,16,16,16,16,16,16,16,16,16,16,16,16,16,16,16,16,16,16,16,16,16,16,16,16,16,16,16,16,16,17,17,17,17,17,17,17,17,17,17,17,17,17,17,17,17,17,17,17,17,17,17,18,18,18,18,18,18,18,18,18,18,18,18,18,18,18,18,18,18,18,18,18,18,18,18,18,18,18,18,18,18,18,18,18,18,18,18,18,19,19,19,19,19,19,19,19,19,19,19,19,20,20,20,20,20,20,20,20,20,20,20,20,20,20,20,20,20,20,20,20,20,20,20,20,20,20,20,20,20,20,20,20,20,20,20,20,20,20,20,21,21,21,21,21,21,21,21,21,21,21,21,21,21,21,21,21,21,21,21,21,21,21,21,21,21,22,22,22,22,22,22,22,22,22,22,22,22,22,22,22,22,22,22,22,22,23,23,23,23,23,23,23,23,23,23,23,23,23,23,23,23,23,23,23,23,23,23,23,23,23,24,24,24,24,24,24,24,24,24,24,24,24,24,24,24,24,24,24,24,25,25,25,25,25,25,25,25,25,25,25,26,26,26,26,26,26,26,26,26,26,26,26,26,26,26,26,26,26,26,26,26,26,26,26,26,26,26,26,26,26,27,27,27,27,27,27,27,27,27,27,27,27,27,27,28,28,28,28,28,28,28,28,28,28,28,28,28,28,28,28,28,28,28,28,28,29,29,29,29,29,29,29,29,29,29,29,29,29,29,29,29,29,29,29,29,29,29,29,29,29,30,30,30,30,30,30,30,30,30,30,30,30,30,30,30,30,30,30,30,30,30,30,30,30,31,31,31,31,31,31,31,31,31,31,31,31,31,31,31,31,31,31,31,31,31,31,31,31,32,32,32,32,32,32,32,32,32,32,32,32,32,32,32,32,32,32,32,32,32,32,32,32,32,32,32,33,33,33,33,33,33,33,33,33,33,33,33,33,33,33,33,33,33,33,33,33,33,33,33,33,33,33,34,34,34,34,34,34,34,34,34,34,34,34,34,34,34,34,34,34,34,34,34,34,34,34,34,35,35,35,35,35,35,35,35,35,35,35,35,35,35,35,35,35,36,36,36,36,36,36,36,36,36,36,36,36,37,37,37,37,37,37,37,37,37,37,37,37,37,37,37,37,37,37,37,37,37,37,38,38,38,38,38,38,38,38,38,38,38,38,38,38,39,39,39,39,39,39,39,39,39,39,39,39,40,40,40,40,40,40,40,40,40,40,40,40,41,41,41,41,41,41,41,41,41,41,41,41,41,42,42,42,42,42,42,42,42,43,43,43,43,43,43,43,44,44,44,44,45,45,45,45,45,45,45,45,45,45,45,45,45,45,46,46,46,46,46,46,47,47,47,47,47,47,47,47,48,48,48,48,48,48,49,49,49,49,49,49,49,49,49,49,49,50,50,50,50,50,50,51,51,51,51,51,52,52,52,52,52,52,52,52,53,53,53,53,53,53,53,54,54,54,54,54,54,55,55,56,56,56,57,57,58,58,59,59,60];
unsucc = [3,4,7,8,9,12,14,19,22,24,25,36,42,4,5,6,7,8,9,10,11,12,13,14,15,16,17,18,19,20,21,22,23,24,25,26,27,28,29,30,31,32,33,34,36,38,39,40,44,45,46,49,54,5,6,10,11,13,15,16,23,26,39,42,7,8,9,10,11,12,14,15,16,19,22,24,25,27,36,38,42,43,44,46,47,48,51,55,7,8,9,10,11,12,14,15,16,19,22,23,24,25,27,30,36,38,42,43,44,46,47,48,51,53,55,57,9,10,11,13,15,16,17,18,19,20,23,24,26,28,36,38,39,42,9,10,11,13,14,15,16,17,18,19,20,23,24,25,26,27,28,30,32,33,35,36,37,38,39,42,55,10,11,12,13,14,15,16,23,26,36,38,39,42,55,11,12,13,14,16,17,18,19,21,22,23,24,25,26,28,29,30,31,32,33,36,42,12,13,14,15,17,18,19,20,21,22,23,24,25,26,27,28,29,31,32,35,36,37,38,42,43,44,45,46,47,48,49,55,13,14,15,16,17,18,19,20,21,22,23,24,25,26,27,28,29,30,31,32,33,34,35,36,37,38,39,40,41,42,43,44,45,46,47,48,50,51,52,53,54,55,56,57,58,59,61,14,15,16,17,19,21,22,23,24,25,26,27,30,35,36,37,38,42,43,44,46,47,48,51,53,55,57,15,16,17,18,19,20,22,23,24,26,28,32,36,38,39,42,49,16,17,18,19,20,21,22,23,24,25,26,28,29,30,31,32,33,36,39,40,42,49,17,18,19,20,21,22,23,24,25,26,27,28,29,31,32,35,36,37,38,39,40,42,43,44,45,46,47,48,49,51,53,55,19,22,23,24,25,26,27,28,30,36,38,39,42,43,44,46,47,48,51,53,55,57,19,21,22,23,24,25,26,27,28,29,30,31,34,35,36,37,38,39,40,41,42,43,44,45,46,47,48,50,51,52,53,54,55,56,57,58,59,20,21,22,23,26,32,36,38,39,42,49,55,21,22,23,24,25,26,27,28,29,30,31,32,33,34,35,36,37,38,39,40,41,42,43,44,45,46,47,48,50,51,52,53,54,55,56,57,58,59,61,22,23,24,25,26,27,28,30,32,33,35,36,37,38,39,42,43,44,46,47,48,49,51,53,55,57,23,24,25,26,27,28,29,30,32,33,35,36,37,38,39,40,41,42,49,55,24,25,27,28,29,31,35,36,38,39,40,41,42,43,44,45,46,47,48,50,51,53,54,55,56,25,26,27,28,30,32,33,35,36,37,38,39,42,43,44,46,47,49,55,26,28,29,32,36,38,39,40,42,49,55,27,28,29,30,31,33,34,35,36,37,38,39,40,41,42,43,44,45,46,47,48,50,51,52,53,54,55,56,57,59,28,29,30,31,32,33,34,36,38,39,40,42,49,55,30,32,35,36,37,38,39,40,41,42,43,44,46,47,48,49,51,53,55,57,60,30,32,33,35,36,37,38,39,40,41,42,43,44,46,47,48,49,50,51,53,55,56,57,58,60,31,32,35,36,37,38,39,40,41,42,43,44,45,46,47,48,49,50,51,53,54,55,56,60,32,33,35,36,37,38,39,40,41,42,43,44,46,47,48,49,50,51,53,55,56,57,58,60,33,34,35,36,37,38,39,40,41,42,43,44,45,46,47,48,50,51,52,53,54,55,56,57,58,59,61,34,35,36,37,38,39,40,41,42,43,44,45,46,47,48,49,50,51,52,53,54,55,56,57,58,59,60,35,36,37,38,39,40,41,42,43,44,45,46,47,48,49,50,51,53,54,55,56,57,58,60,61,36,38,39,40,42,43,44,45,46,47,48,49,51,53,54,55,57,39,40,41,42,43,44,46,47,48,49,50,51,38,39,40,41,42,43,44,45,46,47,48,49,50,51,53,54,55,56,57,58,60,61,39,40,41,42,43,44,46,47,48,49,50,51,52,57,42,43,44,45,46,47,48,49,51,53,55,57,42,43,44,45,46,47,48,49,51,53,55,57,42,43,44,45,46,47,48,49,51,53,54,55,57,43,44,45,46,49,50,52,54,44,45,46,48,49,54,55,49,50,52,55,46,47,48,49,50,51,52,53,55,56,57,58,59,60,49,50,52,54,55,56,48,49,50,52,54,55,56,59,49,50,52,54,55,56,50,51,52,53,54,55,56,57,58,59,61,51,53,54,55,57,60,52,54,55,56,59,53,54,55,56,57,58,60,61,54,55,56,57,58,59,61,55,56,57,58,59,60,57,60,57,59,60,59,60,59,60,60,61,61];

USEFUL_RES = [{},
	{1,2,3,5,7,8,9,10,11,12,13,14,15,16},
	{1,3,6,7,8,9,10,11,12,13,15},
	{1,7,10,14},
	{1,2,3,5,6,7,8,9,11,12,13,15,16},
	{3,6,7,11,12,13},
	{1,2,3,5,6,7,10,11,12,13,14,16},
	{1,7,8,9,10,14,15},
	{3,7,11,12,13},
	{7,10},
	{1,3,8,9,15},
	{1,3,7,8,9,10,11,12,13,14,15},
	{1,3,6,7,8,9,10,11,12,13,15,16},
	{1,3,6,7,10,11,12,13,14},
	{1,3,4,6,7,10,11,12,13,14,17},
	{3,6,7,11,12,13},
	{1,2,3,5,6,7,8,9,10,11,12,13,14,15,16},
	{1,2,3,5,7,8,9,11,12,13,15,16},
	{2,5,16},
	{2,5,16},
	{3,4,6,7,11,12,13,17},
	{1,3,7,8,9,11,12,13,15},
	{2,3,5,6,7,11,12,13,16},
	{1,2,5,7,10,14,16},
	{1,3,8,9,15},
	{1,2,3,5,6,7,10,11,12,13,14,16},
	{1,3,7,8,9,10,14,15},
	{1,7,10,16},
	{1,3,8,9,15},
	{1,3,8,9,15},
	{1,2,3,4,5,6,7,8,9,11,12,13,15,16,17},
	{1,2,5,7,8,9,10,14,15,16},
	{1,3,4,6,7,8,9,10,11,12,13,15,17},
	{1,2,3,4,5,6,7,8,9,11,12,13,15,16,17},
	{1,3,7,8,9,11,12,13,15},
	{1,2,3,5,6,7,10,11,12,13,14,16},
	{1,2,3,5,7,8,9,10,11,12,13,15,16},
	{1,2,3,5,8,9,15,16},
	{1,3,7,8,9,11,12,13,15},
	{3,6,7,11,12,13},
	{1,3,7,8,9,10,15},
	{1,3,6,7,8,9,11,12,13,15},
	{1,3,7,8,9,10,15,16},
	{1,2,3,5,6,7,10,11,12,13,14,16},
	{1,3,4,6,7,8,9,10,11,12,13,15,17},
	{1,2,3,5,6,7,8,9,11,12,13,15,16},
	{1,2,3,4,5,6,7,8,9,11,12,13,15,16,17},
	{1,2,3,5,6,7,8,9,10,11,12,13,14,15,16},
	{1,3,7,8,9,11,12,13,15},
	{2,5,16},
	{1,3,4,6,7,8,9,11,12,13,15,16,17},
	{1,2,5,7,10,14,16},
	{1,3,7,10,11,12,13},
	{1,2,3,5,8,9,15,16},
	{1,3,4,6,7,10,11,12,13,14,17},
	{1,3,6,7,10,11,12,13,14},
	{1,2,3,5,6,7,8,9,11,12,13,15,16},
	{1,3,7,10,11,12,13,16},
	{1,3,6,7,10,11,12,13,14},
	{1,3,6,7,10,11,12,13,16},
	{3,7,11,12,13},
	{}];

POTENTIAL_ACT = [{2,3,4,5,7,8,11,12,13,14,15,17,18,22,24,25,26,27,28,29,30,31,32,33,34,35,36,37,38,39,41,42,43,44,45,46,47,48,49,51,52,53,54,55,56,57,58,59,60},
	{2,5,7,17,18,19,20,23,24,26,31,32,34,36,37,38,44,46,47,48,50,52,54,57},
	{2,3,5,6,7,9,11,12,13,14,15,16,17,18,21,22,23,25,26,27,29,30,31,33,34,35,36,37,38,39,40,41,42,43,44,45,46,47,48,49,51,53,54,55,56,57,58,59,60,61},
	{15,21,31,33,34,45,47,51,55},
	{2,5,7,17,18,19,20,23,24,26,31,32,34,36,37,38,44,46,47,48,50,52,54,57},
	{3,5,6,7,13,14,15,16,17,21,23,26,31,33,34,36,40,42,44,45,46,47,48,51,55,56,57,59,60},
	{2,3,4,5,6,7,8,9,10,12,13,14,15,16,17,18,21,22,23,24,26,27,28,31,32,33,34,35,36,37,39,40,41,42,43,44,45,46,47,48,49,51,52,53,55,56,57,58,59,60,61},
	{2,3,5,8,11,12,13,17,18,22,25,27,29,30,31,32,33,34,35,37,38,39,41,42,43,45,46,47,48,49,51,54,57},
	{2,3,5,8,11,12,13,17,18,22,25,27,29,30,31,32,33,34,35,37,38,39,41,42,43,45,46,47,48,49,51,54,57},
	{2,3,4,7,8,10,12,13,14,15,17,24,26,27,28,32,33,36,37,41,43,44,45,48,52,53,55,56,58,59,60},
	{2,3,5,6,7,9,12,13,14,15,16,17,18,21,22,23,26,31,33,34,35,36,37,39,40,42,44,45,46,47,48,49,51,53,55,56,57,58,59,60,61},
	{2,3,5,6,7,9,12,13,14,15,16,17,18,21,22,23,26,31,33,34,35,36,37,39,40,42,44,45,46,47,48,49,51,53,55,56,57,58,59,60,61},
	{2,3,5,6,7,9,12,13,14,15,16,17,18,21,22,23,26,31,33,34,35,36,37,39,40,42,44,45,46,47,48,49,51,53,55,56,57,58,59,60,61},
	{2,4,7,8,12,14,15,17,24,26,27,32,36,44,48,52,55,56,59},
	{2,3,5,8,11,12,13,17,18,22,25,27,29,30,31,32,33,34,35,37,38,39,41,42,43,45,46,47,48,49,51,54,57},
	{2,5,7,13,17,18,19,20,23,24,26,28,31,32,34,36,37,38,43,44,46,47,48,50,51,52,54,57,58,60},
	{15,21,31,33,34,45,47,51,55}];
